data/lp_files/q3/38_3.lp
\ Model foo
\ LP format - for model browsing. Use MPS format to capture full model detail.
Minimize
  z
Subject To
 allocateEach[1]: x[1,1] + x[2,1] = 1
 allocateEach[2]: x[1,2] + x[2,2] = 1
 allocateEach[3]: x[1,3] + x[2,3] = 1
 allocateEach[4]: x[1,4] + x[2,4] = 1
 allocateEach[5]: x[1,5] + x[2,5] = 1
 allocateEach[6]: x[1,6] + x[2,6] = 1
 allocateEach[7]: x[1,7] + x[2,7] = 1
 allocateEach[8]: x[1,8] + x[2,8] = 1
 allocateEach[9]: x[1,9] + x[2,9] = 1
 allocateEach[10]: x[1,10] + x[2,10] = 1
 allocateEach[11]: x[1,11] + x[2,11] = 1
 allocateEach[12]: x[1,12] + x[2,12] = 1
 allocateEach[13]: x[1,13] + x[2,13] = 1
 allocateEach[14]: x[1,14] + x[2,14] = 1
 allocateEach[15]: x[1,15] + x[2,15] = 1
 allocateEach[16]: x[1,16] + x[2,16] = 1
 allocateEach[17]: x[1,17] + x[2,17] = 1
 allocateEach[18]: x[1,18] + x[2,18] = 1
 allocateAllCash: cashProportion[1] + cashProportion[2] = 1
 findWorstP[1,2]: z + 0.0208949298452731 cashProportion[1]
   - 0.0208949298452731 cashProportion[2] + 0.0649205470292634 x[1,1]
   + 0.0413928560234859 x[1,2] + 0.0966808403940784 x[1,3]
   + 0.0531149116666841 x[1,4] + 0.0101026985801895 x[1,5]
   + 0.0576804538378763 x[1,6] + 0.0176666631841784 x[1,7]
   + 0.078554488753304 x[1,8] + 0.0495105362683745 x[1,9]
   + 0.0186800672816741 x[1,10] + 0.0453315502993199 x[1,11]
   + 0.0703009914644212 x[1,12] + 0.0578789556714063 x[1,13]
   + 0.1035761672430185 x[1,14] + 0.0301304888368837 x[1,15]
   + 0.0595818924537961 x[1,16] + 0.0254918144112331 x[1,17]
   + 0.0985091467555398 x[1,18] - 0.0649205470292634 x[2,1]
   - 0.0413928560234859 x[2,2] - 0.0966808403940784 x[2,3]
   - 0.0531149116666841 x[2,4] - 0.0101026985801895 x[2,5]
   - 0.0576804538378763 x[2,6] - 0.0176666631841784 x[2,7]
   - 0.078554488753304 x[2,8] - 0.0495105362683745 x[2,9]
   - 0.0186800672816741 x[2,10] - 0.0453315502993199 x[2,11]
   - 0.0703009914644212 x[2,12] - 0.0578789556714063 x[2,13]
   - 0.1035761672430185 x[2,14] - 0.0301304888368837 x[2,15]
   - 0.0595818924537961 x[2,16] - 0.0254918144112331 x[2,17]
   - 0.0985091467555398 x[2,18] >= 0
 findWorstP[2,1]: z - 0.0190371033143597 cashProportion[1]
   + 0.0190371033143597 cashProportion[2] - 0.05440804127244 x[1,1]
   - 0.0909402425326962 x[1,2] - 0.0180376553903558 x[1,3]
   - 0.0478783148356146 x[1,4] - 0.0245673818271812 x[1,5]
   - 0.0890936435112033 x[1,6] - 0.0760437091892098 x[1,7]
   - 0.0316015915018371 x[1,8] - 0.0442517466542291 x[1,9]
   - 0.0713605817738773 x[1,10] - 0.0678577547640351 x[1,11]
   - 0.00319823335681243 x[1,12] - 0.0599097641302899 x[1,13]
   - 0.0828970663823793 x[1,14] - 0.0670201222182033 x[1,15]
   - 0.0579108682822822 x[1,16] - 0.0894839041291477 x[1,17]
   - 0.00450227493384607 x[1,18] + 0.05440804127244 x[2,1]
   + 0.0909402425326962 x[2,2] + 0.0180376553903558 x[2,3]
   + 0.0478783148356146 x[2,4] + 0.0245673818271812 x[2,5]
   + 0.0890936435112033 x[2,6] + 0.0760437091892098 x[2,7]
   + 0.0316015915018371 x[2,8] + 0.0442517466542291 x[2,9]
   + 0.0713605817738773 x[2,10] + 0.0678577547640351 x[2,11]
   + 0.00319823335681243 x[2,12] + 0.0599097641302899 x[2,13]
   + 0.0828970663823793 x[2,14] + 0.0670201222182033 x[2,15]
   + 0.0579108682822822 x[2,16] + 0.0894839041291477 x[2,17]
   + 0.00450227493384607 x[2,18] >= 0
Bounds
 z <= 1
 -infinity <= cashProportion[1] <= 1
 -infinity <= cashProportion[2] <= 1
Binaries
 x[1,1] x[1,2] x[1,3] x[1,4] x[1,5] x[1,6] x[1,7] x[1,8] x[1,9] x[1,10]
 x[1,11] x[1,12] x[1,13] x[1,14] x[1,15] x[1,16] x[1,17] x[1,18] x[2,1]
 x[2,2] x[2,3] x[2,4] x[2,5] x[2,6] x[2,7] x[2,8] x[2,9] x[2,10] x[2,11]
 x[2,12] x[2,13] x[2,14] x[2,15] x[2,16] x[2,17] x[2,18]
End
