data/mps_files/q3/38_3.mps
NAME foo
ROWS
 N  OBJ
 E  allocateEach[1]
 E  allocateEach[2]
 E  allocateEach[3]
 E  allocateEach[4]
 E  allocateEach[5]
 E  allocateEach[6]
 E  allocateEach[7]
 E  allocateEach[8]
 E  allocateEach[9]
 E  allocateEach[10]
 E  allocateEach[11]
 E  allocateEach[12]
 E  allocateEach[13]
 E  allocateEach[14]
 E  allocateEach[15]
 E  allocateEach[16]
 E  allocateEach[17]
 E  allocateEach[18]
 E  allocateAllCash
 G  findWorstP[1,2]
 G  findWorstP[2,1]
COLUMNS
    z         OBJ       1
    z         findWorstP[1,2]  1
    z         findWorstP[2,1]  1
    cashProportion[1]  allocateAllCash  1
    cashProportion[1]  findWorstP[1,2]  2.0894929845273053e-02
    cashProportion[1]  findWorstP[2,1]  -1.9037103314359691e-02
    cashProportion[2]  allocateAllCash  1
    cashProportion[2]  findWorstP[1,2]  -2.0894929845273053e-02
    cashProportion[2]  findWorstP[2,1]  1.9037103314359691e-02
    MARKER    'MARKER'                 'INTORG'
    x[1,1]    allocateEach[1]  1
    x[1,1]    findWorstP[1,2]  6.4920547029263365e-02
    x[1,1]    findWorstP[2,1]  -5.4408041272439985e-02
    x[1,2]    allocateEach[2]  1
    x[1,2]    findWorstP[1,2]  4.1392856023485913e-02
    x[1,2]    findWorstP[2,1]  -9.0940242532696239e-02
    x[1,3]    allocateEach[3]  1
    x[1,3]    findWorstP[1,2]  0.0966808403940784
    x[1,3]    findWorstP[2,1]  -1.8037655390355803e-02
    x[1,4]    allocateEach[4]  1
    x[1,4]    findWorstP[1,2]  5.3114911666684091e-02
    x[1,4]    findWorstP[2,1]  -4.7878314835614617e-02
    x[1,5]    allocateEach[5]  1
    x[1,5]    findWorstP[1,2]  1.0102698580189518e-02
    x[1,5]    findWorstP[2,1]  -2.4567381827181177e-02
    x[1,6]    allocateEach[6]  1
    x[1,6]    findWorstP[1,2]  5.7680453837876254e-02
    x[1,6]    findWorstP[2,1]  -8.9093643511203344e-02
    x[1,7]    allocateEach[7]  1
    x[1,7]    findWorstP[1,2]  1.7666663184178363e-02
    x[1,7]    findWorstP[2,1]  -7.6043709189209774e-02
    x[1,8]    allocateEach[8]  1
    x[1,8]    findWorstP[1,2]  7.8554488753304036e-02
    x[1,8]    findWorstP[2,1]  -3.1601591501837084e-02
    x[1,9]    allocateEach[9]  1
    x[1,9]    findWorstP[1,2]  4.9510536268374490e-02
    x[1,9]    findWorstP[2,1]  -4.4251746654229096e-02
    x[1,10]   allocateEach[10]  1
    x[1,10]   findWorstP[1,2]  1.8680067281674106e-02
    x[1,10]   findWorstP[2,1]  -7.1360581773877288e-02
    x[1,11]   allocateEach[11]  1
    x[1,11]   findWorstP[1,2]  4.5331550299319880e-02
    x[1,11]   findWorstP[2,1]  -0.0678577547640351
    x[1,12]   allocateEach[12]  1
    x[1,12]   findWorstP[1,2]  7.0300991464421175e-02
    x[1,12]   findWorstP[2,1]  -3.1982333568124272e-03
    x[1,13]   allocateEach[13]  1
    x[1,13]   findWorstP[1,2]  5.7878955671406350e-02
    x[1,13]   findWorstP[2,1]  -5.9909764130289936e-02
    x[1,14]   allocateEach[14]  1
    x[1,14]   findWorstP[1,2]  1.0357616724301850e-01
    x[1,14]   findWorstP[2,1]  -8.2897066382379259e-02
    x[1,15]   allocateEach[15]  1
    x[1,15]   findWorstP[1,2]  3.0130488836883736e-02
    x[1,15]   findWorstP[2,1]  -6.7020122218203276e-02
    x[1,16]   allocateEach[16]  1
    x[1,16]   findWorstP[1,2]  0.0595818924537961
    x[1,16]   findWorstP[2,1]  -5.7910868282282174e-02
    x[1,17]   allocateEach[17]  1
    x[1,17]   findWorstP[1,2]  2.5491814411233119e-02
    x[1,17]   findWorstP[2,1]  -8.9483904129147723e-02
    x[1,18]   allocateEach[18]  1
    x[1,18]   findWorstP[1,2]  9.8509146755539789e-02
    x[1,18]   findWorstP[2,1]  -4.5022749338460661e-03
    x[2,1]    allocateEach[1]  1
    x[2,1]    findWorstP[1,2]  -6.4920547029263365e-02
    x[2,1]    findWorstP[2,1]  5.4408041272439985e-02
    x[2,2]    allocateEach[2]  1
    x[2,2]    findWorstP[1,2]  -4.1392856023485913e-02
    x[2,2]    findWorstP[2,1]  9.0940242532696239e-02
    x[2,3]    allocateEach[3]  1
    x[2,3]    findWorstP[1,2]  -0.0966808403940784
    x[2,3]    findWorstP[2,1]  1.8037655390355803e-02
    x[2,4]    allocateEach[4]  1
    x[2,4]    findWorstP[1,2]  -5.3114911666684091e-02
    x[2,4]    findWorstP[2,1]  4.7878314835614617e-02
    x[2,5]    allocateEach[5]  1
    x[2,5]    findWorstP[1,2]  -1.0102698580189518e-02
    x[2,5]    findWorstP[2,1]  2.4567381827181177e-02
    x[2,6]    allocateEach[6]  1
    x[2,6]    findWorstP[1,2]  -5.7680453837876254e-02
    x[2,6]    findWorstP[2,1]  8.9093643511203344e-02
    x[2,7]    allocateEach[7]  1
    x[2,7]    findWorstP[1,2]  -1.7666663184178363e-02
    x[2,7]    findWorstP[2,1]  7.6043709189209774e-02
    x[2,8]    allocateEach[8]  1
    x[2,8]    findWorstP[1,2]  -7.8554488753304036e-02
    x[2,8]    findWorstP[2,1]  3.1601591501837084e-02
    x[2,9]    allocateEach[9]  1
    x[2,9]    findWorstP[1,2]  -4.9510536268374490e-02
    x[2,9]    findWorstP[2,1]  4.4251746654229096e-02
    x[2,10]   allocateEach[10]  1
    x[2,10]   findWorstP[1,2]  -1.8680067281674106e-02
    x[2,10]   findWorstP[2,1]  7.1360581773877288e-02
    x[2,11]   allocateEach[11]  1
    x[2,11]   findWorstP[1,2]  -4.5331550299319880e-02
    x[2,11]   findWorstP[2,1]  0.0678577547640351
    x[2,12]   allocateEach[12]  1
    x[2,12]   findWorstP[1,2]  -7.0300991464421175e-02
    x[2,12]   findWorstP[2,1]  3.1982333568124272e-03
    x[2,13]   allocateEach[13]  1
    x[2,13]   findWorstP[1,2]  -5.7878955671406350e-02
    x[2,13]   findWorstP[2,1]  5.9909764130289936e-02
    x[2,14]   allocateEach[14]  1
    x[2,14]   findWorstP[1,2]  -1.0357616724301850e-01
    x[2,14]   findWorstP[2,1]  8.2897066382379259e-02
    x[2,15]   allocateEach[15]  1
    x[2,15]   findWorstP[1,2]  -3.0130488836883736e-02
    x[2,15]   findWorstP[2,1]  6.7020122218203276e-02
    x[2,16]   allocateEach[16]  1
    x[2,16]   findWorstP[1,2]  -0.0595818924537961
    x[2,16]   findWorstP[2,1]  5.7910868282282174e-02
    x[2,17]   allocateEach[17]  1
    x[2,17]   findWorstP[1,2]  -2.5491814411233119e-02
    x[2,17]   findWorstP[2,1]  8.9483904129147723e-02
    x[2,18]   allocateEach[18]  1
    x[2,18]   findWorstP[1,2]  -9.8509146755539789e-02
    x[2,18]   findWorstP[2,1]  4.5022749338460661e-03
    MARKER    'MARKER'                 'INTEND'
RHS
    RHS1      allocateEach[1]  1
    RHS1      allocateEach[2]  1
    RHS1      allocateEach[3]  1
    RHS1      allocateEach[4]  1
    RHS1      allocateEach[5]  1
    RHS1      allocateEach[6]  1
    RHS1      allocateEach[7]  1
    RHS1      allocateEach[8]  1
    RHS1      allocateEach[9]  1
    RHS1      allocateEach[10]  1
    RHS1      allocateEach[11]  1
    RHS1      allocateEach[12]  1
    RHS1      allocateEach[13]  1
    RHS1      allocateEach[14]  1
    RHS1      allocateEach[15]  1
    RHS1      allocateEach[16]  1
    RHS1      allocateEach[17]  1
    RHS1      allocateEach[18]  1
    RHS1      allocateAllCash  1
BOUNDS
 UP BND1      z         1
 MI BND1      cashProportion[1]
 UP BND1      cashProportion[1]  1
 MI BND1      cashProportion[2]
 UP BND1      cashProportion[2]  1
 BV BND1      x[1,1]  
 BV BND1      x[1,2]  
 BV BND1      x[1,3]  
 BV BND1      x[1,4]  
 BV BND1      x[1,5]  
 BV BND1      x[1,6]  
 BV BND1      x[1,7]  
 BV BND1      x[1,8]  
 BV BND1      x[1,9]  
 BV BND1      x[1,10] 
 BV BND1      x[1,11] 
 BV BND1      x[1,12] 
 BV BND1      x[1,13] 
 BV BND1      x[1,14] 
 BV BND1      x[1,15] 
 BV BND1      x[1,16] 
 BV BND1      x[1,17] 
 BV BND1      x[1,18] 
 BV BND1      x[2,1]  
 BV BND1      x[2,2]  
 BV BND1      x[2,3]  
 BV BND1      x[2,4]  
 BV BND1      x[2,5]  
 BV BND1      x[2,6]  
 BV BND1      x[2,7]  
 BV BND1      x[2,8]  
 BV BND1      x[2,9]  
 BV BND1      x[2,10] 
 BV BND1      x[2,11] 
 BV BND1      x[2,12] 
 BV BND1      x[2,13] 
 BV BND1      x[2,14] 
 BV BND1      x[2,15] 
 BV BND1      x[2,16] 
 BV BND1      x[2,17] 
 BV BND1      x[2,18] 
ENDATA
